sat
(:max-memory         18.05
 :memory             18.05
 :nlsat-propagations 11
 :nlsat-stages       5
 :num-allocs         22265
 :rlimit-count       3181
 :time               0.00
 :total-time         0.01)
